[VALIDATOR STDOUT]
Checking plan: /home/jfan5/Safety-gen/runs/benchmark/optic/ferry_20260205_113042/ferry/optic_results/ferry-l28-c15-s28001.plan
Plan executed successfully - checking goal
Plan valid
Final value: 69 

Successful plans:
Value: 69
 /home/jfan5/Safety-gen/runs/benchmark/optic/ferry_20260205_113042/ferry/optic_results/ferry-l28-c15-s28001.plan 69
